WARNING: for repeatability, setting FPU to use double precision
============================[ Problem Statistics ]=============================
|                                                                             |
|  Number of variables:           100                                         |
|  Number of clauses:             449                                         |
|  Parse time:                   0.00 s                                       |
|  Eliminated clauses:           0.00 Mb                                      |
|  Simplification time:          0.00 s                                       |
|                                                                             |
============================[ Search Statistics ]==============================
| Conflicts |          ORIGINAL         |          LEARNT          | Progress |
|           |    Vars  Clauses Literals |    Limit  Clauses Lit/Cl |          |
===============================================================================
|       100 |      98      443     1335 |      162      100      7 |  0.010 % |
===============================================================================
restarts              : 2
conflicts             : 134            (45938 /sec)
decisions             : 185            (0.00 % random) (63421 /sec)
propagations          : 3066           (1051080 /sec)
conflict literals     : 949            (14.35 % deleted)
Memory used           : 13.00 MB
CPU time              : 0.002917 s

SATISFIABLE
